* UNL main file generated by charmmgen
* author: Victor Bazterra 2004 CHPC
* 

Read rtf card name jz4_CHARMM.rtf

Read param card name jz4_CHARMM.prm

Read sequence card
* Reading the coordinates of residue
* 
    1
UNL
Generate UNL setup
Read coor card free
* Residues coordinate
* 
   28
    1    1 UNL  C     24.32900 -24.00300  -0.13100
    2    1 UNL  C1    21.36300 -27.23500  -4.19700
    3    1 UNL  C2    21.98400 -26.74600  -5.50500
    4    1 UNL  C3    22.96900 -25.59800  -5.32100
    5    1 UNL  C4    22.40500 -24.50600  -4.41200
    6    1 UNL  C5    21.96600 -26.57500  -2.96100
    7    1 UNL  C6    21.89800 -25.04000  -3.04800
    8    1 UNL  C7    22.46400 -24.35200  -1.78700
    9    1 UNL  C8    23.90000 -24.72100  -1.40400
   10    1 UNL  O     23.34800 -23.45000  -4.28200
   11    1 UNL  H     25.36000 -24.26600   0.12300
   12    1 UNL  H1    24.27300 -22.91700  -0.25200
   13    1 UNL  H2    23.69100 -24.29000   0.71100
   14    1 UNL  H3    20.28400 -27.04300  -4.21800
   15    1 UNL  H4    21.47500 -28.32400  -4.12200
   16    1 UNL  H5    22.48900 -27.57800  -6.01000
   17    1 UNL  H6    21.18000 -26.42900  -6.18100
   18    1 UNL  H7    23.91100 -25.97800  -4.90500
   19    1 UNL  H8    23.23700 -25.17300  -6.29600
   20    1 UNL  H9    21.54500 -24.06000  -4.92800
   21    1 UNL  H10   21.43300 -26.92200  -2.06800
   22    1 UNL  H11   23.00300 -26.91400  -2.85800
   23    1 UNL  H12   20.82300 -24.79800  -3.03500
   24    1 UNL  H13   22.37900 -23.26400  -1.90000
   25    1 UNL  H14   21.81100 -24.61300  -0.94200
   26    1 UNL  H15   24.59700 -24.46400  -2.20500
   27    1 UNL  H16   23.98800 -25.79800  -1.23100
   28    1 UNL  H17   24.23400 -23.84000  -4.19000
Energy ihbfrq 0 inbfrq -1
Open write card unit 14 name tmp.out
Write energy card unit 14
* UNL energy before the optimization
* 
Minimise Abnr Nstep 5000 Tolgrd 0.00001
Write energy card unit 14
* UNL energy after optimization
* 
Write coor card unit 14
* UNL energy after optimization
* 
